w = 35;

n = 22;

r2 = array1d(1..2, [3, 3]);

r3 = array1d(1..2, [3, 4]);

r4 = array1d(1..2, [3, 5]);

r5 = array1d(1..2, [3, 6]);

r6 = array1d(1..2, [3, 7]);

r7 = array1d(1..2, [3, 8]);

r8 = array1d(1..2, [3, 9]);

r9 = array1d(1..2, [3, 10]);

r10 = array1d(1..2, [3, 12]);

r11 = array1d(1..2, [3, 19]);

r12 = array1d(1..2, [3, 22]);

r13 = array1d(1..2, [4, 3]);

r14 = array1d(1..2, [4, 4]);

r15 = array1d(1..2, [4, 5]);

r16 = array1d(1..2, [4, 6]);

r17 = array1d(1..2, [4, 7]);

r18 = array1d(1..2, [4, 8]);

r19 = array1d(1..2, [4, 12]);

r20 = array1d(1..2, [4, 17]);

r21 = array1d(1..2, [4, 20]);

r22 = array1d(1..2, [4, 23]);

r23 = array1d(1..2, [14, 35]);

